Test: fpga12_11_sat.cnf
Options: -no-inverting-opt -sym-usage-var-bump
WARNING: for repeatability, setting FPU to use double precision
============================[ Problem Statistics ]=============================
|                                                                             |
|  Number of symmetries:           29                                         |
|  Number of invertingSyms:         0                                         |
|  Number of variables:           198                                         |
|  Number of clauses:             968                                         |
|  Parse time:                   0.00 s                                       |
|                                                                             |
============================[ Search Statistics ]==============================
| Conflicts |          ORIGINAL         |          LEARNT          | Progress |
|           |    Vars  Clauses Literals |    Limit  Clauses Lit/Cl |          |
===============================================================================
|       100 |     198      968     2640 |      354      220     40 |  0.003 % |
===============================================================================
restarts              : 2
conflicts             : 115            (inf /sec)
symconflicts          : 23             (inf /sec)
decisions             : 358            (0.00 % random) (inf /sec)
propagations          : 2726           (inf /sec)
sympropagations       : 131            (inf /sec)
conflict literals     : 4183           (1.62 % deleted)
literals     : 4183           (1.62 % deleted)

HEURISTIC USAGES
random                : 0           
activity w/ lookahead : 0           
activity no lookahead : 0           
original sp           : 357         
sym count             : 0           

Memory used           : 5.00 MB
CPU time              : 0 s

SATISFIABLE
